0001 30
0002 5
0003 26
0004 24
0005 10
0006 32
0007 12
0008 4
0009 28
0010 5
0011 7
0012 16
0013 1
0014 35
0015 31
0016 22
0017 11
0018 1
0019 34
0020 8
0021 32
0022 32
0023 12
0024 20
0025 6
0026 32
0027 4
0028 34
0029 21
0030 6
0031 9
0032 2
0033 5
0034 3
0035 4
0036 7
0037 3
0038 19
0039 33
0040 19
0041 28
0042 27
0043 35
0044 19
0045 17
0046 31
0047 12
0048 14
0049 27
0050 11
0051 9
0052 11
0053 19
0054 23
0055 26
0056 13
0057 5
0058 34
0059 4
0060 35
0061 33
0062 33
0063 11
0064 31
0065 30
0066 2
0067 3
0068 4
0069 27
0070 29
0071 17
0072 34
0073 30
0074 22
0075 19
0076 14
0077 12
0078 15
0079 1
0080 5
0081 7
0082 31
0083 9
0084 19
0085 29
0086 7
0087 27
0088 34
0089 9
0090 1
0091 28
0092 25
0093 30
0094 13
0095 6
0096 11
0097 3
0098 24
0099 24
0100 19
0101 29
0102 23
0103 7
0104 26
0105 16
0106 21
0107 12
0108 2
0109 4
0110 30
0111 32
0112 31
0113 1
0114 18
0115 28
0116 10
0117 11
0118 3
0119 8
0120 27
0121 21
0122 18
0123 15
0124 13
0125 13
0126 7
0127 20
0128 33
0129 35
0130 20
0131 28
0132 17
0133 12
0134 4
0135 9
0136 3
0137 26
0138 22
0139 1
0140 30
0141 25
0142 14
0143 29
0144 21
0145 32
0146 32
0147 15
0148 8
0149 35
0150 9
0151 14
0152 19
0153 33
0154 28
0155 10
0156 24
0157 6
0158 17
0159 21
0160 2
0161 9
0162 32
0163 18
0164 7
0165 31
0166 34
0167 25
0168 29
0169 22
0170 26
0171 34
0172 15
0173 8
0174 35
0175 2
0176 13
0177 29
0178 23
0179 9
0180 18
0181 23
0182 34
0183 10
0184 2
0185 19
0186 12
0187 34
0188 16
0189 9
0190 14
0191 26
0192 2
0193 22
0194 8
0195 23
0196 7
0197 29
0198 27
0199 15
0200 11
0201 14
0202 30
0203 15
0204 9
0205 20
0206 6
0207 25
0208 29
0209 31
0210 10
0211 24
0212 26
0213 30
0214 17
0215 35
0216 17
0217 25
0218 2
0219 2
0220 27
0221 16
0222 26
0223 10
0224 6
0225 11
0226 32
0227 2
0228 24
0229 32
0230 15
0231 22
0232 26
0233 30
0234 27
0235 1
0236 30
0237 32
0238 13
0239 11
0240 13
0241 3
0242 8
0243 31
0244 21
0245 23
0246 14
0247 2
0248 12
0249 17
0250 20
0251 7
0252 11
0253 8
0254 15
0255 27
0256 13
0257 6
0258 9
0259 5
0260 35
0261 31
0262 11
0263 10
0264 24
0265 4
0266 30
0267 20
0268 30
0269 1
0270 30
0271 14
0272 10
0273 12
0274 6
0275 21
0276 25
0277 22
0278 33
0279 32
0280 26
0281 14
0282 29
0283 24
0284 34
0285 28
0286 8
0287 8
0288 10
0289 1
0290 19
0291 27
0292 9
0293 17
0294 22
0295 14
0296 4
0297 5
0298 2
0299 21
0300 8
0301 24
0302 9
0303 16
0304 15
0305 12
0306 27
0307 8
0308 28
0309 11
0310 14
0311 12
0312 6
0313 28
0314 10
0315 9
0316 15
0317 17
0318 18
0319 13
0320 31
0321 34
0322 24
0323 9
0324 27
0325 4
0326 19
0327 14
0328 21
0329 15
0330 9
0331 23
0332 2
0333 2
0334 25
0335 23
0336 35
0337 15
0338 15
0339 9
0340 33
0341 6
0342 20
0343 27
0344 23
0345 24
0346 2
0347 8
0348 2
0349 6
0350 6
0351 9
0352 6
0353 15
0354 13
0355 14
0356 9
0357 6
0358 22
0359 8
0360 21
0361 7
0362 7
0363 11
0364 12
0365 24
0366 25
0367 32
0368 21
0369 26
0370 23
0371 13
0372 28
0373 2
0374 18
0375 23
0376 21
0377 33
0378 13
0379 16
0380 5
0381 3
0382 29
0383 4
0384 4
0385 31
0386 33
0387 17
0388 31
0389 13
0390 22
0391 33
0392 6
0393 8
0394 19
0395 2
0396 27
0397 4
0398 24
0399 32
0400 18
0401 17
0402 35
0403 14
0404 1
0405 21
0406 26
0407 5
0408 19
0409 11
0410 10
0411 11
0412 23
0413 19
0414 33
0415 1
0416 1
0417 3
0418 1
0419 5
0420 6
0421 18
0422 6
0423 21
0424 19
0425 32
0426 16
0427 26
0428 13
0429 22
0430 15
0431 20
0432 16
0433 25
0434 33
0435 20
0436 13
0437 16
0438 32
0439 23
0440 14
0441 1
0442 35
0443 34
0444 3
0445 22
0446 19
0447 7
0448 4
0449 29
0450 6
0451 5
0452 3
0453 24
0454 13
0455 18
0456 35
0457 6
0458 2
0459 19
0460 1
0461 29
0462 3
0463 33
0464 34
0465 30
0466 19
0467 6
0468 28
0469 6
0470 32
0471 24
0472 19
0473 17
0474 12
0475 18
0476 5
0477 19
0478 10
0479 24
0480 35
0481 13
0482 29
0483 33
0484 22
0485 18
0486 32
0487 28
0488 34
0489 28
0490 19
0491 7
0492 11
0493 9
0494 1
0495 7
0496 27
0497 3
0498 18
0499 20
0500 17
0501 6
0502 9
0503 4
0504 16
0505 5
0506 27
0507 16
0508 9
0509 5
0510 17
0511 17
0512 4
0513 25
0514 25
0515 34
0516 20
0517 2
0518 11
0519 12
0520 8
0521 15
0522 22
0523 24
0524 25
0525 21
0526 28
0527 18
0528 16
0529 17
0530 3
0531 9
0532 5
0533 14
0534 4
0535 16
0536 33
0537 9
0538 22
0539 6
0540 24
0541 20
0542 9
0543 29
0544 21
0545 1
0546 27
0547 18
0548 33
0549 13
0550 27
0551 24
0552 4
0553 28
0554 33
0555 7
0556 34
0557 29
0558 6
0559 4
0560 24
0561 15
0562 24
0563 34
0564 35
0565 2
0566 27
0567 18
0568 19
0569 31
0570 17
0571 23
0572 31
0573 5
0574 35
0575 23
0576 7
0577 20
0578 1
0579 19
0580 25
0581 18
0582 20
0583 22
0584 35
0585 2
0586 20
0587 20
0588 1
0589 13
0590 10
0591 17
0592 33
0593 2
0594 1
0595 14
0596 2
0597 19
0598 8
0599 8
0600 19
0601 24
0602 31
0603 5
0604 17
0605 3
0606 9
0607 26
0608 16
0609 19
0610 6
0611 28
0612 29
0613 32
0614 26
0615 30
0616 3
0617 9
0618 7
0619 13
0620 3
0621 13
0622 35
